(set-logic QF_LRA)
(set-info :source |
SAL benchmark suite.  Created at SRI by Bruno Dutertre, John Rushby, Maria
Sorea, and Leonardo de Moura.  Contact demoura@csl.sri.com for more
information.

This benchmark was automatically translated into SMT-LIB format from
CVC format using CVC Lite
|)
(set-info :smt-lib-version 2.0)
(set-info :category "industrial")
(set-info :status unsat)
(declare-fun x_0 () Bool)
(declare-fun x_1 () Bool)
(declare-fun x_2 () Bool)
(declare-fun x_3 () Bool)
(declare-fun x_4 () Bool)
(declare-fun x_5 () Bool)
(declare-fun x_6 () Bool)
(declare-fun x_7 () Bool)
(declare-fun x_8 () Real)
(declare-fun x_9 () Bool)
(declare-fun x_10 () Bool)
(declare-fun x_11 () Bool)
(declare-fun x_12 () Bool)
(declare-fun x_13 () Real)
(declare-fun x_14 () Bool)
(declare-fun x_15 () Bool)
(declare-fun x_16 () Bool)
(declare-fun x_17 () Real)
(declare-fun x_18 () Bool)
(declare-fun x_19 () Bool)
(declare-fun x_20 () Real)
(declare-fun x_21 () Real)
(declare-fun x_22 () Real)
(declare-fun x_23 () Real)
(declare-fun x_24 () Bool)
(declare-fun x_25 () Bool)
(declare-fun x_26 () Bool)
(declare-fun x_27 () Real)
(declare-fun x_28 () Bool)
(declare-fun x_29 () Bool)
(declare-fun x_30 () Bool)
(declare-fun x_31 () Real)
(declare-fun x_32 () Bool)
(declare-fun x_33 () Bool)
(declare-fun x_34 () Real)
(declare-fun x_35 () Real)
(declare-fun x_36 () Real)
(assert (let ((?v_28 (+ x_17 x_23)) (?v_5 (+ x_13 x_23)) (?v_1 (= x_20 0))) (let ((?v_16 (not ?v_1)) (?v_30 (not x_16))) (let ((?v_32 (and x_15 ?v_30)) (?v_27 (= x_24 x_10)) (?v_7 (not x_12))) (let ((?v_9 (and x_11 ?v_7)) (?v_12 (not x_11))) (let ((?v_0 (and ?v_12 ?v_7)) (?v_6 (and (= x_25 x_11) (= x_26 x_12))) (?v_8 (= x_27 0)) (?v_10 (= x_27 x_13)) (?v_41 (< x_17 1)) (?v_3 (= x_28 x_14)) (?v_20 (or ?v_12 x_12)) (?v_29 (and (= x_29 x_15) (= x_30 x_16))) (?v_13 (and ?v_12 x_12)) (?v_47 (or x_15 ?v_30)) (?v_38 (or x_15 x_16)) (?v_14 (or x_11 x_12)) (?v_33 (= x_31 x_17)) (?v_31 (= x_31 0)) (?v_36 (not x_15))) (let ((?v_37 (and ?v_36 x_16)) (?v_4 (= x_20 1))) (let ((?v_21 (not ?v_4)) (?v_2 (= x_32 x_18)) (?v_26 (= x_33 x_19)) (?v_19 (< x_13 2)) (?v_42 (or ?v_36 x_16)) (?v_25 (and ?v_36 ?v_30)) (?v_46 (< x_17 6)) (?v_23 (or x_11 ?v_7)) (?v_34 (<= ?v_28 1)) (?v_15 (<= ?v_5 1)) (?v_22 (<= ?v_5 2)) (?v_35 (= x_31 ?v_28)) (?v_24 (<= ?v_5 3)) (?v_48 (<= ?v_28 6)) (?v_11 (= x_27 ?v_5))) (let ((?v_43 (not ?v_34)) (?v_54 (+ 0 x_8)) (?v_75 (not x_5))) (let ((?v_76 (and x_4 ?v_75)) (?v_73 (= x_10 x_7)) (?v_56 (not x_1))) (let ((?v_57 (and x_0 ?v_56)) (?v_59 (not x_0))) (let ((?v_49 (and ?v_59 ?v_56)) (?v_55 (and (= x_11 x_0) (= x_12 x_1))) (?v_51 (= x_13 0)) (?v_84 (< 0 1)) (?v_50 (not x_9)) (?v_53 (= x_14 x_3)) (?v_66 (or ?v_59 x_1)) (?v_74 (and (= x_15 x_4) (= x_16 x_5))) (?v_60 (and ?v_59 x_1)) (?v_89 (or x_4 ?v_75)) (?v_80 (or x_4 x_5)) (?v_61 (or x_0 x_1)) (?v_72 (= x_17 0)) (?v_78 (not x_4))) (let ((?v_79 (and ?v_78 x_5)) (?v_52 (= x_18 x_2)) (?v_71 (= x_19 x_6)) (?v_65 (< 0 2)) (?v_85 (or ?v_78 x_5)) (?v_70 (and ?v_78 ?v_75)) (?v_88 (< 0 6)) (?v_68 (or x_0 ?v_56)) (?v_62 (<= ?v_54 1)) (?v_67 (<= ?v_54 2)) (?v_77 (= x_17 ?v_54)) (?v_69 (<= ?v_54 3)) (?v_90 (<= ?v_54 6)) (?v_58 (= x_13 ?v_54))) (let ((?v_81 (not ?v_62)) (?v_17 (= x_13 2)) (?v_91 (not x_25)) (?v_18 (or ?v_20 ?v_16)) (?v_92 (not x_30)) (?v_39 (= x_17 1)) (?v_44 (= x_17 6)) (?v_40 (or ?v_42 ?v_16)) (?v_45 (or ?v_47 ?v_16)) (?v_63 (= 0 2)) (?v_64 (or ?v_66 x_9)) (?v_82 (= 0 1)) (?v_86 (= 0 6)) (?v_83 (or ?v_85 x_9)) (?v_87 (or ?v_89 x_9))) (and (and (and (and (and (and (and (and (and (and (and (and (and (and (and (and (and (and (<= x_34 1) (>= x_34 0)) (<= x_20 1)) (>= x_20 0)) ?v_49) (not x_2)) (not x_3)) ?v_70) (not x_6)) (not x_7)) (not (< x_23 0))) (= x_34 (ite ?v_4 0 1))) (or (or (or (or (or (or (or (or (or (and (and (and (and (and (and (= x_35 0) ?v_0) ?v_1) ?v_6) ?v_2) ?v_10) ?v_3) (and (and (and (and (and (and (and (= x_35 1) ?v_0) ?v_1) x_25) (not x_26)) ?v_8) ?v_2) ?v_3)) (and (and (and (and (and (and (and (= x_35 2) ?v_0) ?v_4) ?v_15) ?v_11) ?v_2) ?v_6) ?v_3)) (and (and (and (and (and (and (and (and (= x_35 3) ?v_9) ?v_1) ?v_17) ?v_91) x_26) ?v_8) ?v_2) ?v_3)) (and (and (and (and (and (and (and (= x_35 4) ?v_9) ?v_1) ?v_19) ?v_6) ?v_2) ?v_10) ?v_3)) (and (and (and (and (and (and (and (= x_35 5) ?v_9) ?v_4) ?v_22) ?v_11) ?v_2) ?v_6) ?v_3)) (and (and (and (and (and (and (and (= x_35 6) ?v_13) ?v_1) x_25) x_26) ?v_2) ?v_10) ?v_3)) (and (and (and (and (and (and (and (= x_35 7) ?v_13) ?v_4) ?v_24) ?v_11) ?v_2) ?v_6) ?v_3)) (and (and (and (and (and (and (= x_35 8) x_11) x_12) ?v_6) ?v_2) ?v_10) ?v_3)) (and (and (and (and (and (and (and (and (and (and (and (and (= x_35 9) (or ?v_14 ?v_16)) (or (or ?v_14 ?v_21) (not ?v_15))) (or ?v_18 (not ?v_17))) (or ?v_18 (not ?v_19))) (or (or ?v_20 ?v_21) (not ?v_22))) (or ?v_23 ?v_16)) (or (or ?v_23 ?v_21) (not ?v_24))) (or ?v_12 ?v_7)) ?v_10) ?v_2) ?v_6) ?v_3))) (or (or (or (or (or (or (or (or (or (or (and (and (and (and (and (and (and (= x_36 0) ?v_25) ?v_1) x_29) ?v_92) ?v_31) ?v_26) ?v_27) (and (and (and (and (and (and (= x_36 1) ?v_25) ?v_1) ?v_29) ?v_26) ?v_33) ?v_27)) (and (and (and (and (and (and (and (= x_36 2) ?v_25) ?v_4) ?v_34) ?v_35) ?v_26) ?v_29) ?v_27)) (and (and (and (and (and (and (and (and (= x_36 3) ?v_32) ?v_1) ?v_39) (not x_29)) x_30) ?v_31) ?v_26) ?v_27)) (and (and (and (and (and (and (and (= x_36 4) ?v_32) ?v_1) ?v_41) ?v_29) ?v_26) ?v_33) ?v_27)) (and (and (and (and (and (and (and (= x_36 5) ?v_32) ?v_4) ?v_34) ?v_35) ?v_26) ?v_29) ?v_27)) (and (and (and (and (and (and (and (and (= x_36 6) ?v_37) ?v_1) ?v_44) x_29) x_30) ?v_31) ?v_26) ?v_27)) (and (and (and (and (and (and (and (= x_36 7) ?v_37) ?v_1) ?v_46) ?v_29) ?v_26) ?v_33) ?v_27)) (and (and (and (and (and (and (and (= x_36 8) ?v_37) ?v_4) ?v_48) ?v_35) ?v_26) ?v_29) ?v_27)) (and (and (and (and (and (and (= x_36 9) x_15) x_16) ?v_29) ?v_26) ?v_33) ?v_27)) (and (and (and (and (and (and (and (and (and (and (and (and (and (= x_36 10) (or ?v_38 ?v_16)) (or (or ?v_38 ?v_21) ?v_43)) (or ?v_40 (not ?v_39))) (or ?v_40 (not ?v_41))) (or (or ?v_42 ?v_21) ?v_43)) (or ?v_45 (not ?v_44))) (or ?v_45 (not ?v_46))) (or (or ?v_47 ?v_21) (not ?v_48))) (or ?v_36 ?v_30)) ?v_33) ?v_26) ?v_29) ?v_27))) (not (< x_8 0))) (= x_20 (ite x_9 0 1))) (or (or (or (or (or (or (or (or (or (and (and (and (and (and (and (= x_21 0) ?v_49) ?v_50) ?v_55) ?v_52) ?v_51) ?v_53) (and (and (and (and (and (and (and (= x_21 1) ?v_49) ?v_50) x_11) ?v_7) ?v_51) ?v_52) ?v_53)) (and (and (and (and (and (and (and (= x_21 2) ?v_49) x_9) ?v_62) ?v_58) ?v_52) ?v_55) ?v_53)) (and (and (and (and (and (and (and (and (= x_21 3) ?v_57) ?v_50) ?v_63) ?v_12) x_12) ?v_51) ?v_52) ?v_53)) (and (and (and (and (and (and (and (= x_21 4) ?v_57) ?v_50) ?v_65) ?v_55) ?v_52) ?v_51) ?v_53)) (and (and (and (and (and (and (and (= x_21 5) ?v_57) x_9) ?v_67) ?v_58) ?v_52) ?v_55) ?v_53)) (and (and (and (and (and (and (and (= x_21 6) ?v_60) ?v_50) x_11) x_12) ?v_52) ?v_51) ?v_53)) (and (and (and (and (and (and (and (= x_21 7) ?v_60) x_9) ?v_69) ?v_58) ?v_52) ?v_55) ?v_53)) (and (and (and (and (and (and (= x_21 8) x_0) x_1) ?v_55) ?v_52) ?v_51) ?v_53)) (and (and (and (and (and (and (and (and (and (and (and (and (= x_21 9) (or ?v_61 x_9)) (or (or ?v_61 ?v_50) ?v_81)) (or ?v_64 (not ?v_63))) (or ?v_64 (not ?v_65))) (or (or ?v_66 ?v_50) (not ?v_67))) (or ?v_68 x_9)) (or (or ?v_68 ?v_50) (not ?v_69))) (or ?v_59 ?v_56)) ?v_51) ?v_52) ?v_55) ?v_53))) (or (or (or (or (or (or (or (or (or (or (and (and (and (and (and (and (and (= x_22 0) ?v_70) ?v_50) x_15) ?v_30) ?v_72) ?v_71) ?v_73) (and (and (and (and (and (and (= x_22 1) ?v_70) ?v_50) ?v_74) ?v_71) ?v_72) ?v_73)) (and (and (and (and (and (and (and (= x_22 2) ?v_70) x_9) ?v_62) ?v_77) ?v_71) ?v_74) ?v_73)) (and (and (and (and (and (and (and (and (= x_22 3) ?v_76) ?v_50) ?v_82) ?v_36) x_16) ?v_72) ?v_71) ?v_73)) (and (and (and (and (and (and (and (= x_22 4) ?v_76) ?v_50) ?v_84) ?v_74) ?v_71) ?v_72) ?v_73)) (and (and (and (and (and (and (and (= x_22 5) ?v_76) x_9) ?v_62) ?v_77) ?v_71) ?v_74) ?v_73)) (and (and (and (and (and (and (and (and (= x_22 6) ?v_79) ?v_50) ?v_86) x_15) x_16) ?v_72) ?v_71) ?v_73)) (and (and (and (and (and (and (and (= x_22 7) ?v_79) ?v_50) ?v_88) ?v_74) ?v_71) ?v_72) ?v_73)) (and (and (and (and (and (and (and (= x_22 8) ?v_79) x_9) ?v_90) ?v_77) ?v_71) ?v_74) ?v_73)) (and (and (and (and (and (and (= x_22 9) x_4) x_5) ?v_74) ?v_71) ?v_72) ?v_73)) (and (and (and (and (and (and (and (and (and (and (and (and (and (= x_22 10) (or ?v_80 x_9)) (or (or ?v_80 ?v_50) ?v_81)) (or ?v_83 (not ?v_82))) (or ?v_83 (not ?v_84))) (or (or ?v_85 ?v_50) ?v_81)) (or ?v_87 (not ?v_86))) (or ?v_87 (not ?v_88))) (or (or ?v_89 ?v_50) (not ?v_90))) (or ?v_78 ?v_75)) ?v_72) ?v_71) ?v_74) ?v_73))) (or (or (and (and ?v_91 x_26) (or x_29 ?v_92)) (and ?v_13 ?v_47)) (and ?v_60 ?v_89)))))))))))))))))
(check-sat)
(exit)
